(set-info :smt-lib-version 2.6)
(set-info :category "crafted")
(set-logic QF_FF)
(define-sort FF0 () (_ FiniteField 52435875175126190479447740508185965837690552500527637822603658699938581184513))
(declare-fun return_n3_alt () FF0)
(declare-fun mul_n14_alt () FF0)
(declare-fun d_n1_alt () FF0)
(declare-fun mul_n13_alt () FF0)
(declare-fun f_n5_alt () FF0)
(declare-fun mul_n15_alt () FF0)
(declare-fun b_n4_alt () FF0)
(declare-fun mul_n7_alt () FF0)
(declare-fun e_n0_alt () FF0)
(declare-fun mul_n12_alt () FF0)
(declare-fun c_n2_alt () FF0)
(declare-fun mul_n11_alt () FF0)
(declare-fun a_n6_alt () FF0)
(declare-fun mul_n10_alt () FF0)
(declare-fun mul_n9_alt () FF0)
(declare-fun mul_n8_alt () FF0)
(declare-fun return_n3 () FF0)
(declare-fun mul_n14 () FF0)
(declare-fun d_n1 () FF0)
(declare-fun mul_n13 () FF0)
(declare-fun f_n5 () FF0)
(declare-fun mul_n15 () FF0)
(declare-fun b_n4 () FF0)
(declare-fun mul_n7 () FF0)
(declare-fun e_n0 () FF0)
(declare-fun mul_n12 () FF0)
(declare-fun c_n2 () FF0)
(declare-fun mul_n11 () FF0)
(declare-fun a_n6 () FF0)
(declare-fun mul_n10 () FF0)
(declare-fun mul_n9 () FF0)
(declare-fun mul_n8 () FF0)
(assert 
  (let ((let0 return_n3_alt))
  (let ((let1 (as ff1 FF0)))
  (let ((let2 mul_n14_alt))
  (let ((let3 (as ff52435875175126190479447740508185965837690552500527637822603658699938581184512 FF0)))
  (let ((let4 d_n1_alt))
  (let ((let5 (ff.mul let4 let3)))
  (let ((let6 mul_n13_alt))
  (let ((let7 (ff.mul let6 let3)))
  (let ((let8 f_n5_alt))
  (let ((let9 (ff.mul let8 let3)))
  (let ((let10 (ff.add let9 let7 let5 let2 let1)))
  (let ((let11 mul_n15_alt))
  (let ((let12 b_n4_alt))
  (let ((let13 (ff.add let12 let9 let11)))
  (let ((let14 (ff.mul let13 let10)))
  (let ((let15 (= let14 let0)))
  (let ((let16 (ff.mul let12 let3)))
  (let ((let17 (ff.add let16 let1)))
  (let ((let18 (as ff2 FF0)))
  (let ((let19 (ff.mul let8 let18)))
  (let ((let20 (ff.mul let19 let17)))
  (let ((let21 (= let20 let11)))
  (let ((let22 (ff.add let6 let4)))
  (let ((let23 (ff.mul let19 let22)))
  (let ((let24 (= let23 let2)))
  (let ((let25 mul_n7_alt))
  (let ((let26 e_n0_alt))
  (let ((let27 (ff.add let26 let5 let25)))
  (let ((let28 mul_n12_alt))
  (let ((let29 (ff.mul let28 let27)))
  (let ((let30 (= let29 let6)))
  (let ((let31 c_n2_alt))
  (let ((let32 mul_n11_alt))
  (let ((let33 (ff.mul let32 let31)))
  (let ((let34 (= let33 let28)))
  (let ((let35 a_n6_alt))
  (let ((let36 mul_n10_alt))
  (let ((let37 (ff.mul let36 let35)))
  (let ((let38 (= let37 let32)))
  (let ((let39 mul_n9_alt))
  (let ((let40 (ff.add let26 let25)))
  (let ((let41 (ff.mul let40 let39)))
  (let ((let42 (= let41 let36)))
  (let ((let43 mul_n8_alt))
  (let ((let44 (ff.mul let43 let4)))
  (let ((let45 (= let44 let39)))
  (let ((let46 (ff.mul let35 let12)))
  (let ((let47 (= let46 let43)))
  (let ((let48 (ff.mul let26 let3)))
  (let ((let49 (ff.add let48 let31)))
  (let ((let50 (ff.mul let26 let49)))
  (let ((let51 (= let50 let25)))
  (let ((let52 (and let51 let47 let45 let42 let38 let34 let30 let24 let21 let15)))
  (let ((let53 return_n3))
  (let ((let54 mul_n14))
  (let ((let55 d_n1))
  (let ((let56 (ff.mul let55 let3)))
  (let ((let57 mul_n13))
  (let ((let58 (ff.mul let57 let3)))
  (let ((let59 f_n5))
  (let ((let60 (ff.mul let59 let3)))
  (let ((let61 (ff.add let60 let58 let56 let54 let1)))
  (let ((let62 mul_n15))
  (let ((let63 b_n4))
  (let ((let64 (ff.add let63 let60 let62)))
  (let ((let65 (ff.mul let64 let61)))
  (let ((let66 (= let65 let53)))
  (let ((let67 (ff.mul let63 let3)))
  (let ((let68 (ff.add let67 let1)))
  (let ((let69 (ff.mul let59 let18)))
  (let ((let70 (ff.mul let69 let68)))
  (let ((let71 (= let70 let62)))
  (let ((let72 (ff.add let57 let55)))
  (let ((let73 (ff.mul let69 let72)))
  (let ((let74 (= let73 let54)))
  (let ((let75 mul_n7))
  (let ((let76 e_n0))
  (let ((let77 (ff.add let76 let56 let75)))
  (let ((let78 mul_n12))
  (let ((let79 (ff.mul let78 let77)))
  (let ((let80 (= let79 let57)))
  (let ((let81 c_n2))
  (let ((let82 mul_n11))
  (let ((let83 (ff.mul let82 let81)))
  (let ((let84 (= let83 let78)))
  (let ((let85 a_n6))
  (let ((let86 mul_n10))
  (let ((let87 (ff.mul let86 let85)))
  (let ((let88 (= let87 let82)))
  (let ((let89 mul_n9))
  (let ((let90 (ff.add let76 let75)))
  (let ((let91 (ff.mul let90 let89)))
  (let ((let92 (= let91 let86)))
  (let ((let93 mul_n8))
  (let ((let94 (ff.mul let93 let55)))
  (let ((let95 (= let94 let89)))
  (let ((let96 (ff.mul let85 let63)))
  (let ((let97 (= let96 let93)))
  (let ((let98 (ff.mul let76 let3)))
  (let ((let99 (ff.add let98 let81)))
  (let ((let100 (ff.mul let76 let99)))
  (let ((let101 (= let100 let75)))
  (let ((let102 (and let101 let97 let95 let92 let88 let84 let80 let74 let71 let66)))
  (let ((let103 (= let53 let0)))
  (let ((let104 (not let103)))
  (let ((let105 (= let59 let8)))
  (let ((let106 (= let55 let4)))
  (let ((let107 (= let85 let35)))
  (let ((let108 (= let76 let26)))
  (let ((let109 (= let81 let31)))
  (let ((let110 (= let63 let12)))
  (let ((let111 (and let110 let109 let108 let107 let106 let105)))
  (let ((let112 (and let111 let104 let102 let52)))
  let112
)))))))))))))))))))))))))))))))))))))))))))))))))))))))))))))))))))))))))))))))))))))))))))))))))))))))))))))))))
)
(check-sat)
